db/data/19990729620766114162083920752777014926.z3.out
-------------------
2500.163622531
